Route 1: 0 59 14 21 5 10 13 0
Route 2: 0 24 57 43 88 78 48 90 67 0
Route 3: 0 61 32 81 4 26 11 45 27 23 72 35 0
Route 4: 0 71 6 98 83 53 70 3 41 84 94 52 0
Route 5: 0 46 73 33 80 97 28 16 29 63 95 17 1 0
Route 6: 0 75 56 30 7 39 47 20 2 74 12 0
Route 7: 0 60 62 93 87 34 79 0
Route 8: 0 85 37 36 89 51 42 82 22 0
Route 9: 0 99 69 96 58 66 100 44 68 15 38 0
Route 10: 0 92 91 18 31 8 19 65 77 86 40 50 9 0
Route 11: 0 55 64 49 25 54 76 0
